SPARKNaCl/why3-z3/sparknacl.adb_74_54_index_check4_1.smt2
;; produced by z3_gnatprove.drv ;;
(set-info :smt-lib-version 2.5)
(set-info :source |VC generated by SPARK 2014|)
(set-info :category industrial)
(set-info :status unknown)
;;; generated by SMT-LIB2 driver
;;; SMT-LIB2 driver: bit-vectors, common part
;;; SMT-LIB2: integer arithmetic
(define-fun __cdiv ((x Int) (y Int)) Int (ite (>= x 0) (div x y) (- (div (- x) y))))
(define-fun __cmod ((x Int) (y Int)) Int (ite (>= x 0) (mod x y) (- (mod (- x) y))))
(declare-datatypes ()
  ((int__ref (int__refqtmk (int__content Int)))))

;; "mod"
(define-fun mod1 ((x Int) (y Int)) Int
  (ite (<= 0 y) (mod x y) (- (mod (- x) y))))

;; "power"
(declare-fun power (Int
  Int) Int)

;; "Power_0"
(assert (forall ((x Int)) (= (power x 0) 1)))

;; "Power_s"
(assert
  (forall ((x Int) (n Int))
    (=> (<= 0 n) (= (power x (+ n 1)) (* x (power x n))))))

;; "Power_s_alt"
(assert
  (forall ((x Int) (n Int))
    (=> (< 0 n) (= (power x n) (* x (power x (- n 1)))))))

;; "Power_1"
(assert (forall ((x Int)) (= (power x 1) x)))

;; "Power_sum"
(assert
  (forall ((x Int) (n Int) (m Int))
    (=>
      (<= 0 n)
      (=> (<= 0 m) (= (power x (+ n m)) (* (power x n) (power x m)))))))

;; "Power_mult"
(assert
  (forall ((x Int) (n Int) (m Int))
    (=> (<= 0 n) (=> (<= 0 m) (= (power x (* n m)) (power (power x n) m))))))

;; "Power_comm1"
(assert
  (forall ((x Int) (y Int))
    (=>
      (= (* x y) (* y x))
      (forall ((n Int))
        (=> (<= 0 n) (= (* (power x n) y) (* y (power x n))))))))

;; "Power_comm2"
(assert
  (forall ((x Int) (y Int))
    (=>
      (= (* x y) (* y x))
      (forall ((n Int))
        (=> (<= 0 n) (= (power (* x y) n) (* (power x n) (power y n))))))))

;; "Power_non_neg"
(assert
  (forall ((x Int) (y Int)) (=> (and (<= 0 x) (<= 0 y)) (<= 0 (power x y)))))

;; "Power_pos"
(assert
  (forall ((x Int) (y Int)) (=> (and (< 0 x) (<= 0 y)) (< 0 (power x y)))))

;; "Power_monotonic"
(assert
  (forall ((x Int) (n Int) (m Int))
    (=> (and (< 0 x) (and (<= 0 n) (<= n m))) (<= (power x n) (power x m)))))

;; "shift_right_arithmetic"
(define-fun shift_right_arithmetic ((x Int) (n Int) (us Int)) Int
  (ite (< x 0) (- (__cdiv (+ x 1) (power 2 n)) 1) (__cdiv x (power 2 n))))

;; "in_range"
(define-fun in_range ((x Int)) Bool
  (and (<= (- 2147483648) x) (<= x 2147483647)))

;; "asr32_16"
(declare-fun asr32_16 (Int) Int)

;; "asr32_16__function_guard"
(declare-fun asr32_16__function_guard (Int
  Int) Bool)

(declare-sort gf16_normal_limb 0)

;; "to_rep"
(declare-fun to_rep (gf16_normal_limb) (_ BitVec 16))

;; "of_rep"
(declare-fun of_rep ((_ BitVec 16)) gf16_normal_limb)

;; "inversion_axiom"
(assert
  (forall ((x gf16_normal_limb))
    (! (= (of_rep (to_rep x)) x) :pattern ((to_rep x)) )))

;; "range_axiom"
(assert true)

;; "coerce_axiom"
(assert
  (forall ((x (_ BitVec 16)))
    (! (= (to_rep (of_rep x)) x) :pattern ((to_rep (of_rep x))) )))

(declare-sort map1 0)

;; "has_bounds"
(declare-fun has_bounds (map1
  Int
  Int) Bool)

;; "get"
(declare-fun get (map1
  Int) gf16_normal_limb)

(declare-const left map1)

(declare-const right map1)

(declare-sort gf32_any_limb 0)

;; "gf32_any_limb'int"
(declare-fun gf32_any_limbqtint (gf32_any_limb) Int)

;; "gf32_any_limb'axiom"
(assert
  (forall ((i gf32_any_limb))
    (and
      (<= (- 65536) (gf32_any_limbqtint i))
      (<= (gf32_any_limbqtint i) 132051011))))

;; "in_range"
(define-fun in_range1 ((x Int)) Bool
  (and (<= (- 65536) x) (<= x 132051011)))

;; "to_rep"
(define-fun to_rep1 ((x gf32_any_limb)) Int
  (gf32_any_limbqtint x))

;; "of_rep"
(declare-fun of_rep1 (Int) gf32_any_limb)

;; "inversion_axiom"
(assert
  (forall ((x gf32_any_limb))
    (! (= (of_rep1 (to_rep1 x)) x) :pattern ((to_rep1 x)) )))

;; "range_axiom"
(assert
  (forall ((x gf32_any_limb))
    (! (in_range1 (to_rep1 x)) :pattern ((to_rep1 x)) )))

;; "coerce_axiom"
(assert
  (forall ((x Int))
    (! (=> (in_range1 x) (= (to_rep1 (of_rep1 x)) x)) :pattern ((to_rep1
                                                                  (of_rep1 x))) )))

(declare-datatypes ()
  ((gf32_any_limb__init_wrapper
   (gf32_any_limb__init_wrapperqtmk
   (rec__value gf32_any_limb)(us_attr__init Bool)))))

(declare-sort map2 0)

(declare-datatypes ()
  ((map__ref (map__refqtmk (map__content map2)))))

;; "has_bounds"
(declare-fun has_bounds1 (map2
  Int
  Int) Bool)

;; "get"
(declare-fun get1 (map2
  Int) gf32_any_limb__init_wrapper)

;; "set"
(declare-fun set (map2
  Int
  gf32_any_limb__init_wrapper) map2)

;; "set_eq"
(assert
  (forall ((a map2) (i Int) (v gf32_any_limb__init_wrapper))
    (! (= (get1 (set a i v) i) v) :pattern ((set a i v)) )))

;; "set_neq"
(assert
  (forall ((a map2) (i Int) (v gf32_any_limb__init_wrapper))
    (! (forall ((j Int))
         (! (=> (not (= i j)) (= (get1 (set a i v) j) (get1 a j))) :pattern (
         (get1
           a
           j)) :pattern ((get1 (set a i v) j)) )) :pattern ((set a i v)) )))

;; "set_has_bounds"
(assert
  (forall ((a map2) (i Int) (f Int) (l Int) (v gf32_any_limb__init_wrapper))
    (! (=>
         (and (<= f i) (<= i l))
         (=> (has_bounds1 a f l) (has_bounds1 (set a i v) f l))) :pattern (
    (has_bounds1
      (set a i v)
      f
      l)) )))

;; "in_range"
(define-fun in_range2 ((x Int)) Bool
  (and (<= 0 x) (<= x 65535)))

;; "in_range"
(define-fun in_range3 ((x Int)) Bool
  (and (<= (- 65536) x) (<= x 65535)))

;; "in_range"
(define-fun in_range4 ((x Int)) Bool
  (and (<= (- 1) x) (<= x 0)))

(declare-const t Int)

(declare-const carry Int)

(declare-const r map2)

;; "r'unused"
(define-fun rqtunused () map__ref
  (map__refqtmk r))

;; "carry'unused"
(define-fun carryqtunused () int__ref
  (int__refqtmk carry))

;; "t'unused"
(define-fun tqtunused () int__ref
  (int__refqtmk t))

;; "Assume"
(assert (has_bounds left 0 15))

;; "Assume"
(assert (has_bounds right 0 15))

;; "Assume"
(assert true)

;; "Assume"
(assert (in_range3 t))

;; "Assume"
(assert true)

;; "Assume"
(assert (in_range4 carry))

;; "Assume"
(assert (has_bounds1 r 0 15))

(declare-const carry1 Int)

;; "carry'unused"
(define-fun carryqtunused1 () int__ref
  (int__refqtmk carry1))

;; "H"
(assert (= carry1 0))

(declare-const i Int)

;; "i'unused"
(define-fun iqtunused () int__ref
  (int__refqtmk i))

;; "H"
(assert (= i 0))

;; "int__content'result'unused"
(define-fun int__contentqtresultqtunused () Int
  i)

;; "o"
(define-fun o () Bool
  (ite (<= i 15) true false))

;; "infix <='result'unused"
(define-fun infix_lseqqtresultqtunused () Bool
  o)

;; "int__content'result'unused"
(define-fun int__contentqtresultqtunused1 () Int
  i)

;; "o"
(define-fun o1 () Bool
  (ite (<= 0 i) true false))

;; "infix <='result'unused"
(define-fun infix_lseqqtresultqtunused1 () Bool
  o1)

;; "o"
(define-fun o2 () Bool
  (and o1 o))

;; "andb'result'unused"
(define-fun andbqtresultqtunused () Bool
  o2)

;; "H"
(assert (= o2 true))

;; "temp___loop_entry_1605'unused"
(define-fun temp___loop_entry_1605qtunused () map2
  r)

;; "map__content'result'unused"
(define-fun map__contentqtresultqtunused () map2
  r)

;; "temp___loop_entry_1603'unused"
(define-fun temp___loop_entry_1603qtunused () Int
  carry1)

;; "int__content'result'unused"
(define-fun int__contentqtresultqtunused2 () Int
  carry1)

;; "temp___loop_entry_1602'unused"
(define-fun temp___loop_entry_1602qtunused () Int
  t)

;; "int__content'result'unused"
(define-fun int__contentqtresultqtunused3 () Int
  t)

;; "int__content'result'unused"
(define-fun int__contentqtresultqtunused4 () Int
  carry1)

;; "int__content'result'unused"
(define-fun int__contentqtresultqtunused5 () Int
  i)

;; "o"
(define-fun o3 () gf16_normal_limb
  (get right i))

;; "get'result'unused"
(define-fun getqtresultqtunused () gf16_normal_limb
  o3)

(declare-const o4 (_ BitVec 16))

;; "Ensures"
(assert (= (to_rep o3) o4))

;; "to_rep'result'unused"
(define-fun to_repqtresultqtunused () (_ BitVec 16)
  o4)

;; "o"
(define-fun o5 () Int
  (bv2int o4))

;; "t_int'result'unused"
(define-fun t_intqtresultqtunused () Int
  o5)

;; "int__content'result'unused"
(define-fun int__contentqtresultqtunused6 () Int
  i)

;; "o"
(define-fun o6 () gf16_normal_limb
  (get left i))

;; "get'result'unused"
(define-fun getqtresultqtunused1 () gf16_normal_limb
  o6)

(declare-const o7 (_ BitVec 16))

;; "Ensures"
(assert (= (to_rep o6) o7))

;; "to_rep'result'unused"
(define-fun to_repqtresultqtunused1 () (_ BitVec 16)
  o7)

;; "o"
(define-fun o8 () Int
  (bv2int o7))

;; "t_int'result'unused"
(define-fun t_intqtresultqtunused1 () Int
  o8)

;; "o"
(define-fun o9 () Int
  (- o8 o5))

;; "infix -'result'unused"
(define-fun infix_mnqtresultqtunused () Int
  o9)

;; "o"
(define-fun o10 () Int
  (+ o9 carry1))

;; "infix +'result'unused"
(define-fun infix_plqtresultqtunused () Int
  o10)

(declare-const t1 Int)

;; "t'unused"
(define-fun tqtunused1 () int__ref
  (int__refqtmk t1))

;; "H"
(assert (= t1 o10))

;; "int__content'result'unused"
(define-fun int__contentqtresultqtunused7 () Int
  t1)

;; "o"
(define-fun o11 () Int
  (mod1 t1 65536))

;; "mod_'result'unused"
(define-fun mod_qtresultqtunused () Int
  o11)

(declare-const o12 gf32_any_limb)

;; "Ensures"
(assert (= (to_rep1 o12) o11))

;; "of_rep'result'unused"
(define-fun of_repqtresultqtunused () gf32_any_limb
  o12)

;; "o"
(define-fun o13 () gf32_any_limb__init_wrapper
  (gf32_any_limb__init_wrapperqtmk o12 true))

;; "to_wrapper'result'unused"
(define-fun to_wrapperqtresultqtunused () gf32_any_limb__init_wrapper
  o13)

;; "int__content'result'unused"
(define-fun int__contentqtresultqtunused8 () Int
  i)

;; "map__content'result'unused"
(define-fun map__contentqtresultqtunused1 () map2
  r)

;; "o"
(define-fun o14 () map2
  (set r i o13))

;; "set'result'unused"
(define-fun setqtresultqtunused () map2
  o14)

(declare-const r1 map2)

;; "r'unused"
(define-fun rqtunused1 () map__ref
  (map__refqtmk r1))

;; "H"
(assert (= r1 o14))

;; "int__content'result'unused"
(define-fun int__contentqtresultqtunused9 () Int
  t1)

;; "o"
(define-fun o15 () Int
  (asr32_16 t1))

;; "H"
(assert (asr32_16__function_guard o15 t1))

;; "H"
(assert (in_range o15))

;; "H"
(assert (= o15 (shift_right_arithmetic t1 16 32)))

;; "H"
(assert
  (ite (<= 0 t1)
    (= o15 (__cdiv t1 65536))
    (= o15 (- (__cdiv (+ t1 1) 65536) 1))))

;; "asr32_16'result'unused"
(define-fun asr32_16qtresultqtunused () Int
  o15)

;; "Ensures"
(assert (in_range4 o15))

;; "range_check_'result'unused"
(define-fun range_check_qtresultqtunused () Int
  o15)

(declare-const carry2 Int)

;; "H"
(assert (= carry2 o15))

(declare-const usf Int)

(declare-const anyqtresultqtunused Int)

;; "H"
(assert (= anyqtresultqtunused usf))

(declare-const jqtunused Int)

;; "H"
(assert (= jqtunused usf))

(declare-const int__contentqtresultqtunused10 Int)

;; "H"
(assert (= int__contentqtresultqtunused10 i))

(declare-const o16 Bool)

;; "H"
(assert (= o16 (ite (<= usf i) true false)))

(declare-const infix_lseqqtresultqtunused2 Bool)

;; "H"
(assert (= infix_lseqqtresultqtunused2 o16))

(declare-const o17 Bool)

;; "H"
(assert (= o17 (ite (<= 0 usf) true false)))

(declare-const infix_lseqqtresultqtunused3 Bool)

;; "H"
(assert (= infix_lseqqtresultqtunused3 o17))

(declare-const andbqtresultqtunused1 Bool)

;; "H"
(assert (= andbqtresultqtunused1 (and o17 o16)))

;; "_f'unused"
(define-fun usfqtunused () Bool
  (ite (forall ((j Int))
         (=> (and (<= 0 j) (<= j i)) (= (us_attr__init (get1 r1 j)) true)))
    true
    false))

;; "any'result'unused"
(define-fun anyqtresultqtunused1 () Bool
  (ite (forall ((j Int))
         (=> (and (<= 0 j) (<= j i)) (= (us_attr__init (get1 r1 j)) true)))
    true
    false))

(declare-const t2 Int)

(declare-const carry3 Int)

(declare-const r2 map2)

(declare-const i1 Int)

;; "i'unused"
(define-fun iqtunused1 () int__ref
  (int__refqtmk i1))

;; "r'unused"
(define-fun rqtunused2 () map__ref
  (map__refqtmk r2))

;; "carry'unused"
(define-fun carryqtunused2 () int__ref
  (int__refqtmk carry3))

;; "LoopInvariant"
(assert
  (forall ((j Int))
    (=> (and (<= 0 j) (<= j i1)) (= (us_attr__init (get1 r2 j)) true))))

;; "LoopInvariant"
(assert
  (forall ((j Int))
    (=>
      (and (<= 0 j) (<= j i1))
      (in_range2 (to_rep1 (rec__value (get1 r2 j)))))))

;; "Assume"
(assert
  (= (and (ite (and
                 (and
                   (and (in_range3 t2) (in_range4 carry3))
                   (has_bounds1 r2 0 15))
                 (forall ((temp___1606 Int))
                   (=>
                     (and (<= 0 temp___1606) (<= temp___1606 15))
                     (=>
                       (or
                         (< 15 temp___1606)
                         (or (< temp___1606 0) (< i1 temp___1606)))
                       (= (get1 r2 temp___1606) (get1 r temp___1606))))))
            true
            false) (ite (and (<= 0 i1) (<= i1 15)) true false)) true))

;; "int__content'result'unused"
(define-fun int__contentqtresultqtunused11 () Int
  i1)

;; "infix ='result'unused"
(define-fun infix_eqqtresultqtunused () Bool
  (ite (= i1 15) true false))

;; "H"
(assert (not (= i1 15)))

;; "int__content'result'unused"
(define-fun int__contentqtresultqtunused12 () Int
  i1)

;; "o"
(define-fun o18 () Int
  (+ i1 1))

;; "infix +'result'unused"
(define-fun infix_plqtresultqtunused1 () Int
  o18)

(declare-const i2 Int)

;; "i'unused"
(define-fun iqtunused2 () int__ref
  (int__refqtmk i2))

;; "H"
(assert (= i2 o18))

;; "int__content'result'unused"
(define-fun int__contentqtresultqtunused13 () Int
  carry3)

;; "int__content'result'unused"
(define-fun int__contentqtresultqtunused14 () Int
  i2)

;; "o"
(define-fun o19 () gf16_normal_limb
  (get right i2))

;; "get'result'unused"
(define-fun getqtresultqtunused2 () gf16_normal_limb
  o19)

(declare-const o20 (_ BitVec 16))

;; "Ensures"
(assert (= (to_rep o19) o20))

;; "to_rep'result'unused"
(define-fun to_repqtresultqtunused2 () (_ BitVec 16)
  o20)

;; "o"
(define-fun o21 () Int
  (bv2int o20))

;; "t_int'result'unused"
(define-fun t_intqtresultqtunused2 () Int
  o21)

;; "int__content'result'unused"
(define-fun int__contentqtresultqtunused15 () Int
  i2)

;; "o"
(define-fun o22 () gf16_normal_limb
  (get left i2))

;; "get'result'unused"
(define-fun getqtresultqtunused3 () gf16_normal_limb
  o22)

(declare-const o23 (_ BitVec 16))

;; "Ensures"
(assert (= (to_rep o22) o23))

;; "to_rep'result'unused"
(define-fun to_repqtresultqtunused3 () (_ BitVec 16)
  o23)

;; "o"
(define-fun o24 () Int
  (bv2int o23))

;; "t_int'result'unused"
(define-fun t_intqtresultqtunused3 () Int
  o24)

;; "o"
(define-fun o25 () Int
  (- o24 o21))

;; "infix -'result'unused"
(define-fun infix_mnqtresultqtunused1 () Int
  o25)

;; "o"
(define-fun o26 () Int
  (+ o25 carry3))

;; "infix +'result'unused"
(define-fun infix_plqtresultqtunused2 () Int
  o26)

(declare-const t3 Int)

;; "t'unused"
(define-fun tqtunused2 () int__ref
  (int__refqtmk t3))

;; "H"
(assert (= t3 o26))

;; "int__content'result'unused"
(define-fun int__contentqtresultqtunused16 () Int
  t3)

;; "o"
(define-fun o27 () Int
  (mod1 t3 65536))

;; "mod_'result'unused"
(define-fun mod_qtresultqtunused1 () Int
  o27)

(declare-const o28 gf32_any_limb)

;; "Ensures"
(assert (= (to_rep1 o28) o27))

;; "of_rep'result'unused"
(define-fun of_repqtresultqtunused1 () gf32_any_limb
  o28)

;; "o"
(define-fun o29 () gf32_any_limb__init_wrapper
  (gf32_any_limb__init_wrapperqtmk o28 true))

;; "to_wrapper'result'unused"
(define-fun to_wrapperqtresultqtunused1 () gf32_any_limb__init_wrapper
  o29)

;; "int__content'result'unused"
(define-fun int__contentqtresultqtunused17 () Int
  i2)

;; "map__content'result'unused"
(define-fun map__contentqtresultqtunused2 () map2
  r2)

;; "o"
(define-fun o30 () map2
  (set r2 i2 o29))

;; "set'result'unused"
(define-fun setqtresultqtunused1 () map2
  o30)

(declare-const r3 map2)

;; "r'unused"
(define-fun rqtunused3 () map__ref
  (map__refqtmk r3))

;; "H"
(assert (= r3 o30))

;; "int__content'result'unused"
(define-fun int__contentqtresultqtunused18 () Int
  t3)

;; "o"
(define-fun o31 () Int
  (asr32_16 t3))

;; "H"
(assert (asr32_16__function_guard o31 t3))

;; "H"
(assert (in_range o31))

;; "H"
(assert (= o31 (shift_right_arithmetic t3 16 32)))

;; "H"
(assert
  (ite (<= 0 t3)
    (= o31 (__cdiv t3 65536))
    (= o31 (- (__cdiv (+ t3 1) 65536) 1))))

;; "asr32_16'result'unused"
(define-fun asr32_16qtresultqtunused1 () Int
  o31)

;; "Ensures"
(assert (in_range4 o31))

;; "range_check_'result'unused"
(define-fun range_check_qtresultqtunused1 () Int
  o31)

(declare-const usf1 Int)

;; "any'result'unused"
(define-fun anyqtresultqtunused2 () Int
  usf1)

;; "j'unused"
(define-fun jqtunused1 () Int
  usf1)

;; "int__content'result'unused"
(define-fun int__contentqtresultqtunused19 () Int
  i2)

;; "o"
(define-fun o32 () Bool
  (ite (<= usf1 i2) true false))

;; "infix <='result'unused"
(define-fun infix_lseqqtresultqtunused4 () Bool
  o32)

;; "o"
(define-fun o33 () Bool
  (ite (<= 0 usf1) true false))

;; "infix <='result'unused"
(define-fun infix_lseqqtresultqtunused5 () Bool
  o33)

;; "o"
(define-fun o34 () Bool
  (and o33 o32))

;; "andb'result'unused"
(define-fun andbqtresultqtunused2 () Bool
  o34)

;; "H"
(assert (= o34 true))

;; Goal "def'vc"
;; File "sparknacl.ads", line 454, characters 0-0
(assert
  (not (<= usf1 15)))

(check-sat)
